<instance format="XCSP3" type="CSP">
  <variables>
    <var id="x0"> 4..6 16 17 </var>
    <var id="x1"> 6 8 13 17 </var>
    <var id="x2"> 6 16 17 </var>
    <var id="x3"> 4 8 </var>
    <var id="x4"> 8 13 16 </var>
    <var id="x5"> 5 12 16 17 </var>
    <var id="x6"> 5 8 13 16 17 </var>
    <var id="x7"> 6 12 13 16 17 </var>
    <var id="x8"> 6 14 16 </var>
    <var id="x9"> 6 10 15 16 </var>
    <var id="x10"> 12 14 16 </var>
    <var id="x11"> 11 14..16 </var>
    <var id="x12"> 6 10 12 </var>
    <var id="x13"> 12 14 16 </var>
    <var id="x14"> 6 10 14 15 </var>
    <var id="x15"> 12 13 15 16 </var>
    <var id="x16"> 3 6 15 16 </var>
    <var id="x17"> 3 12..14 16 17 </var>
    <var id="x18"> 3 6 16 17 </var>
    <var id="x19"> 13..16 </var>
    <var id="x20"> 3 6 12 17 </var>
    <var id="x21"> 3 6 12 13 16 17 </var>
    <var id="x22"> 6 13..15 </var>
    <var id="x23"> 6 14 17 </var>
    <var id="x24"> 14 15 17 </var>
    <var id="x25"> 6 14 17 </var>
    <var id="x26"> 2 14 15 </var>
    <var id="x27"> 3 7 14 </var>
    <var id="x28"> 3 6 10 17 </var>
    <var id="x29"> 2 6 10 17 </var>
    <var id="x30"> 3 15 </var>
    <var id="x31"> 1 3 16 </var>
    <var id="x32"> 2 9 16 </var>
    <var id="x33"> 1 2 16 </var>
    <var id="x34"> 1 3 9 16 </var>
    <var id="x35"> 5 10 16 </var>
    <var id="x36"> 0 3 10 16 </var>
    <var id="x37"> 2 9 10 </var>
    <var id="x38"> 3 5 9 16 </var>
    <var id="x39"> 4 13 16 </var>
    <var id="x40"> 8 13 17 </var>
    <var id="x41"> 3 7 13 16 17 </var>
    <var id="x42"> 3 7 16 17 </var>
    <var id="x43"> 3 4 8 17 </var>
    <var id="x44"> 3 13 16 17 </var>
    <var id="x45"> 4 8 17 </var>
    <var id="x46"> 9 14 16 </var>
    <var id="x47"> 1 3 9 15 16 </var>
    <var id="x48"> 8 14..16 </var>
    <var id="x49"> 2 8 9 14..16 </var>
    <var id="x50"> 2 3 9 16 </var>
    <var id="x51"> 1..3 8 15 </var>
    <var id="x52"> 3 16 </var>
    <var id="x53"> 2 8 9 </var>
    <var id="x54"> 4 12 15 </var>
    <var id="x55"> 8 9 15 </var>
    <var id="x56"> 3 7 9 </var>
    <var id="x57"> 8 15 </var>
    <var id="x58"> 3 7..9 </var>
    <var id="x59"> 5 8 15 </var>
    <var id="x60"> 4 8 9 12 </var>
    <var id="x61"> 3..5 9 12 15 </var>
    <var id="x62"> 8 16 17 </var>
    <var id="x63"> 1 13 16 17 </var>
    <var id="x64"> 1 2 8 13 16 </var>
    <var id="x65"> 2 9 16 17 </var>
    <var id="x66"> 8 13 16 17 </var>
    <var id="x67"> 6 13 16 17 </var>
    <var id="x68"> 6 13 </var>
    <var id="x69"> 2 6 8 9 17 </var>
    <var id="x70"> 0 6 14 17 </var>
    <var id="x71"> 0 1 </var>
    <var id="x72"> 1 6 10 </var>
    <var id="x73"> 6 8 14 17 </var>
    <var id="x74"> 0 1 8 </var>
    <var id="x75"> 1 8 14 </var>
    <var id="x76"> 8 10 17 </var>
    <var id="x77"> 11 </var>
    <var id="x78"> 3 5 9 15 </var>
    <var id="x79"> 9 14 17 </var>
    <var id="x80"> 9 14 15 17 </var>
    <var id="x81"> 3 4 7 15 </var>
    <var id="x82"> 14 15 </var>
    <var id="x83"> 3 4 17 </var>
    <var id="x84"> 5 9 14 17 </var>
    <var id="x85"> 3..5 9 15 </var>
    <var id="x86"> 0 5 9 16 17 </var>
    <var id="x87"> 3 5 9 15 16 </var>
    <var id="x88"> 5 15..17 </var>
    <var id="x89"> 9 17 </var>
    <var id="x90"> 9 15..17 </var>
    <var id="x91"> 0 3 15 </var>
    <var id="x92"> 0 15 </var>
    <var id="x93"> 3 5 9 12 15 16 </var>
    <var id="x94"> 1 11 13 </var>
    <var id="x95"> 1 12 13 16 </var>
    <var id="x96"> 2 11 16 </var>
    <var id="x97"> 0..2 </var>
    <var id="x98"> 1 13 16 </var>
    <var id="x99"> 2 12 16 </var>
    <var id="x100"> 10 13 16 </var>
    <var id="x101"> 2 10 12 </var>
    <var id="x102"> 4 16 </var>
    <var id="x103"> 5 6 16 </var>
    <var id="x104"> 4 5 8 11 14 16 17 </var>
    <var id="x105"> 6 8 11 14 17 </var>
    <var id="x106"> 6 8 14 16 17 </var>
    <var id="x107"> 6 11 16 17 </var>
    <var id="x108"> 4 6 8 17 </var>
    <var id="x109"> 5 14 16 17 </var>
    <var id="x110"> 1 4 12 15 16 </var>
    <var id="x111"> 1 6 9 15 16 </var>
    <var id="x112"> 4 15..17 </var>
    <var id="x113"> 6 9 16 17 </var>
    <var id="x114"> 1 4 15 </var>
    <var id="x115"> 4 6 12 17 </var>
    <var id="x116"> 9 12 16 17 </var>
    <var id="x117"> 4 6 15 </var>
    <var id="x118"> 0 4 6 9 14 16 </var>
    <var id="x119"> 13 14 16 </var>
    <var id="x120"> 2 6 9 14 16 </var>
    <var id="x121"> 0 2 4 </var>
    <var id="x122"> 9 13 14 16 </var>
    <var id="x123"> 0 4 6 </var>
    <var id="x124"> 2 4 6 9 </var>
    <var id="x125"> 4 9 16 </var>
    <var id="x126"> 0 9 </var>
    <var id="x127"> 0..2 13 15 </var>
    <var id="x128"> 8 11 15 </var>
    <var id="x129"> 1 8 9 11 13 </var>
    <var id="x130"> 1 8 9 13 </var>
    <var id="x131"> 0 13 </var>
    <var id="x132"> 0 13 15 </var>
    <var id="x133"> 9 11 15 </var>
    <var id="x134"> 4 13 16 </var>
    <var id="x135"> 4 8 14 16 17 </var>
    <var id="x136"> 13 14 16 17 </var>
    <var id="x137"> 8 13 14 16 </var>
    <var id="x138"> 4 8 10 17 </var>
    <var id="x139"> 8 10 13 16 17 </var>
    <var id="x140"> 4 10 13 14 </var>
  </variables>
  <constraints>
    <group>
      <allDifferent> %... </allDifferent>
      <args> x0 x1 x2 x3 x4 x5 x6 x7 </args>
      <args> x8 x9 x10 x11 x12 x13 x14 </args>
      <args> x15 x16 x17 x18 x19 x20 x21 x22 </args>
      <args> x23 x24 x25 x26 x27 x28 x29 x30 </args>
      <args> x31 x32 x33 x34 x35 x36 x37 x38 </args>
      <args> x39 x40 x41 x42 x43 x44 x45 </args>
      <args> x46 x47 x48 x49 x50 x51 x52 x53 </args>
      <args> x54 x55 x56 x57 x58 x59 x60 x61 </args>
      <args> x62 x63 x64 x65 x66 x67 x68 x69 </args>
      <args> x70 x71 x72 x73 x74 x75 x76 x77 </args>
      <args> x78 x79 x80 x81 x82 x83 x84 x85 </args>
      <args> x86 x87 x88 x89 x90 x91 x92 x93 </args>
      <args> x94 x95 x96 x97 x98 x99 x100 x101 </args>
      <args> x102 x103 x104 x105 x106 x107 x108 x109 </args>
      <args> x110 x111 x112 x113 x114 x115 x116 x117 </args>
      <args> x118 x119 x120 x121 x122 x123 x124 x125 </args>
      <args> x126 x127 x128 x129 x130 x131 x132 x133 </args>
      <args> x134 x135 x136 x137 x138 x139 x140 </args>
      <args> x0 x8 x23 x46 x70 x86 x118 x126 </args>
      <args> x15 x39 x54 x71 x102 x110 x127 x134 </args>
      <args> x9 x16 x47 x72 x78 x87 x103 x111 </args>
      <args> x24 x48 x62 x88 x104 x112 x128 x135 </args>
      <args> x1 x25 x40 x79 x89 x94 x105 x129 </args>
      <args> x10 x17 x31 x41 x63 x95 x119 x136 </args>
      <args> x32 x49 x55 x73 x80 x90 x106 x120 </args>
      <args> x2 x18 x42 x50 x56 x96 x107 x113 </args>
      <args> x3 x51 x74 x81 x91 x97 x114 x121 </args>
      <args> x11 x19 x26 x33 x57 x64 x82 x137 </args>
      <args> x4 x27 x34 x58 x75 x98 x122 x130 </args>
      <args> x12 x20 x43 x83 x108 x115 x123 x138 </args>
      <args> x5 x13 x65 x84 x99 x109 x116 </args>
      <args> x6 x35 x59 x66 x76 x100 x139 </args>
      <args> x7 x21 x28 x36 x44 x52 x67 x131 </args>
      <args> x14 x22 x68 x92 x117 x132 x140 </args>
      <args> x29 x37 x45 x53 x60 x69 x101 x124 </args>
      <args> x30 x38 x61 x77 x85 x93 x125 x133 </args>
    </group>
  </constraints>
</instance>

